100
128
15
39
19
7
9
16
17
4
29
11
9
10
25
6
23
29
60
43
34
3
16
3
36
11
12
3
9
9
17
12
6
11
18
33
14
13
63
8
10
47
3
25
15
12
12
24
54
12
10
30
27
12
13
22
27
36
43
10
52
35
44
15
1
9
36
44
35
48
17
48
18
37
23
23
23
32
49
60
36
46
32
2
62
54
12
63
64
47
53
40
47
41
28
40
45
64
64
43
63
64